
  22   10
  10   10   10   10   10   10   10   10   10   10

   0   0   0   0   0   0   0   0   0   0   0   1 2 
  10  10  10  10  10  10  10  10  10  10  10   1 3 
   7  10  10  10  10  10  10  10  10  10  10   1 4 
  10  10  10  10  10  10  10  10  10  10  10   1 5 
   5  10  10  10  10  10  10  10  10  10  10   1 6 
   1  10  10  10  10  10  10  10  10  10  10   1 7 
   9  10  10  10  10  10  10  10  10  10  10   1 8 
  10  10  10  10  10  10  10  10  10  10  10   1 9 
   2  10  10  10  10  10  10  10  10  10  10   2 19 10 
   3  10  10  10  10  10  10  10  10  10  10   1 11 
   8  10  10  10  10  10  10  10  10  10  10   1 12 
   2  10  10  10  10  10  10  10  10  10  10   1 13 
   2  10  10  10  10  10  10  10  10  10  10   1 14 
   6  10  10  10  10  10  10  10  10  10  10   2 21 15 
   3  10  10  10  10  10  10  10  10  10  10   1 16 
   3  10  10  10  10  10  10  10  10  10  10   1 17 
   7  10  10  10  10  10  10  10  10  10  10   1 18 
   9  10  10  10  10  10  10  10  10  10  10   1 20 
   7  10  10  10  10  10  10  10  10  10  10   1 20 
   5  10  10  10  10  10  10  10  10  10  10   1 22
   8  10  10  10  10  10  10  10  10  10  10   1 22
   0   0   0   0   0   0   0   0   0   0   0   0 
